1 -1 -2 0
1 -1 3 0
1 4 -5 0
1 6 -7 0
1 -6 -8 0
1 -9 10 0
1 9 11 0
1 -12 13 0
1 14 2 0
1 -7 15 0
1 -7 -2 0
1 16 2 0
1 -17 -7 0
1 2 1 0
1 3 18 0
1 -19 2 0
1 19 20 0
1 21 22 0
1 -21 -23 0
1 24 25 0
1 -24 16 0
1 24 7 0
1 -22 -16 0
1 -22 -26 0
1 27 28 0
1 -29 30 0
1 29 -31 0
1 32 -33 0
1 -32 34 0
1 32 35 0
1 -32 -1 0
1 -5 -36 0
1 5 -37 0
1 -5 -38 0
1 5 4 0
1 -5 -35 0
1 -39 11 0
1 -36 -40 0
1 34 -41 0
1 13 38 0
1 -42 37 0
1 -42 43 0
1 42 13 0
1 44 45 0
1 35 42 0
1 -43 46 0
1 -43 -47 0
1 43 -41 0
1 -43 -48 0
1 10 -3 0
1 10 -12 0
1 -49 50 0
1 51 -52 0
1 -53 54 0
1 53 20 0
1 -53 18 0
1 -53 11 0
1 55 2 0
1 55 27 0
1 55 56 0
1 26 -46 0
1 -26 27 0
1 26 45 0
1 -26 55 0
1 -52 -57 0
1 -57 58 0
1 57 59 0
1 56 -60 0
1 56 61 0
1 56 62 0
1 63 23 0
1 -64 65 0
1 64 -63 0
1 -64 -66 0
1 -67 -68 0
1 -59 66 0
1 69 -70 0
1 -69 71 0
1 -65 -71 0
1 -65 69 0
1 -66 72 0
1 68 72 0
1 -68 -73 0
1 74 -58 0
1 -75 -76 0
1 77 76 0
1 78 79 0
1 -80 81 0
1 -80 82 0
1 81 83 0
1 81 -31 0
1 -81 -84 0
1 81 82 0
1 81 -85 0
1 86 -87 0
1 88 89 0
1 -90 -91 0
1 -84 92 0
1 93 -81 0
1 94 80 0
1 -94 -95 0
1 95 -41 0
1 96 -80 0
1 96 -91 0
1 97 98 0
1 -97 -99 0
1 41 -18 0
1 40 95 0
1 100 -101 0
1 -102 -47 0
1 -101 -40 0
1 103 47 0
1 104 -105 0
1 -104 33 0
1 104 -35 0
1 46 -101 0
1 -54 -71 0
1 54 106 0
1 -107 108 0
1 -108 -100 0
1 -109 45 0
1 109 56 0
1 62 -45 0
1 -60 110 0
1 61 -111 0
1 -61 112 0
1 112 -113 0
1 -112 -58 0
1 114 -60 0
1 114 54 0
1 -114 -48 0
1 -48 43 0
1 -48 62 0
1 113 -56 0
1 58 115 0
1 58 116 0
1 73 68 0
1 -73 117 0
1 -111 -72 0
1 118 -113 0
1 118 119 0
1 116 120 0
1 -116 121 0
1 116 122 0
1 -116 -61 0
1 -110 123 0
1 110 119 0
1 -110 -58 0
1 110 -53 0
1 -72 65 0
1 72 124 0
1 125 111 0
1 126 -127 0
1 126 -128 0
1 -129 -125 0
1 117 -130 0
1 124 -131 0
1 124 -50 0
1 -127 77 0
1 -76 -78 0
1 -76 77 0
1 132 126 0
1 132 -133 0
1 134 135 0
1 134 69 0
1 134 -136 0
1 134 133 0
1 -137 -127 0
1 -137 -138 0
1 137 139 0
1 137 133 0
1 140 -141 0
1 -140 -142 0
1 143 144 0
1 139 -135 0
1 139 134 0
1 -136 145 0
1 -146 -145 0
1 -147 -148 0
1 79 78 0
1 79 135 0
1 -79 139 0
1 -149 -82 0
1 150 151 0
1 -152 -149 0
1 -153 -154 0
1 155 153 0
1 -156 88 0
1 89 -156 0
1 -92 88 0
1 -92 -157 0
1 87 152 0
1 -158 83 0
1 158 -87 0
1 -158 -150 0
1 159 -160 0
1 159 -154 0
1 159 -156 0
1 -159 -149 0
1 161 -162 0
1 -161 -150 0
1 -163 -164 0
1 163 -165 0
1 -83 81 0
1 83 -163 0
1 166 157 0
1 -99 167 0
1 157 168 0
1 -165 -83 0
1 165 157 0
1 165 92 0
1 -167 -169 0
1 170 171 0
1 -170 172 0
1 -170 173 0
1 -98 46 0
1 -98 162 0
1 98 -103 0
1 174 -175 0
1 176 -99 0
1 -176 177 0
1 178 -179 0
1 173 98 0
1 -173 -180 0
1 -171 181 0
1 171 -182 0
1 171 -180 0
1 183 109 0
1 184 -178 0
1 184 62 0
1 -185 106 0
1 -185 186 0
1 -187 -188 0
1 -189 183 0
1 189 -185 0
1 -190 -191 0
1 190 -184 0
1 -192 -114 0
1 -192 113 0
1 -192 -48 0
1 -192 193 0
1 194 -177 0
1 188 -195 0
1 -195 196 0
1 -195 185 0
1 -197 194 0
1 -193 198 0
1 -193 196 0
1 193 -199 0
1 -193 -200 0
1 201 -198 0
1 -120 197 0
1 202 203 0
1 -202 -204 0
1 203 -110 0
1 205 -206 0
1 -207 119 0
1 207 -203 0
1 207 -208 0
1 -209 196 0
1 -204 210 0
1 -204 206 0
1 -204 188 0
1 119 -211 0
1 208 -212 0
1 -208 213 0
1 -131 -208 0
1 -131 -122 0
1 -211 131 0
1 -214 -208 0
1 212 -215 0
1 -216 217 0
1 216 -218 0
1 -216 208 0
1 219 211 0
1 220 129 0
1 221 -222 0
1 -221 223 0
1 -213 221 0
1 213 111 0
1 223 224 0
1 223 225 0
1 223 226 0
1 223 208 0
1 227 122 0
1 227 228 0
1 -227 -229 0
1 224 -79 0
1 -224 -223 0
1 -230 231 0
1 -128 126 0
1 -232 233 0
1 148 -144 0
1 148 -145 0
1 234 235 0
1 -138 236 0
1 138 -235 0
1 141 230 0
1 141 140 0
1 -144 141 0
1 -237 238 0
1 239 -138 0
1 -239 240 0
1 -240 138 0
1 240 -241 0
1 241 242 0
1 243 244 0
1 238 -245 0
1 -246 79 0
1 -246 247 0
1 -248 249 0
1 248 250 0
1 251 -252 0
1 253 -254 0
1 253 -255 0
1 -249 -251 0
1 256 -257 0
1 -256 -258 0
1 259 260 0
1 259 -261 0
1 -259 -262 0
1 -259 255 0
1 257 -263 0
1 -258 -264 0
1 -258 -255 0
1 -258 265 0
1 -252 260 0
1 -263 161 0
1 -154 257 0
1 -154 -263 0
1 -160 257 0
1 -160 266 0
1 267 -268 0
1 -269 -270 0
1 -269 -271 0
1 -262 272 0
1 -273 -164 0
1 162 266 0
1 -175 -274 0
1 -175 275 0
1 175 174 0
1 276 273 0
1 277 162 0
1 -277 -278 0
1 277 -271 0
1 278 279 0
1 169 280 0
1 -180 -275 0
1 281 -280 0
1 -281 -282 0
1 -182 -283 0
1 275 282 0
1 -275 -284 0
1 -179 274 0
1 179 168 0
1 177 171 0
1 -285 -286 0
1 287 -191 0
1 -283 -288 0
1 289 120 0
1 191 287 0
1 -191 -289 0
1 191 -290 0
1 191 -190 0
1 -198 -290 0
1 198 200 0
1 -200 -291 0
1 292 200 0
1 290 198 0
1 290 293 0
1 290 -191 0
1 181 -294 0
1 -181 -295 0
1 181 286 0
1 -296 291 0
1 296 -297 0
1 -298 299 0
1 300 -209 0
1 293 -301 0
1 -302 -303 0
1 297 300 0
1 297 293 0
1 -297 298 0
1 297 200 0
1 210 212 0
1 -218 -304 0
1 218 216 0
1 -301 -229 0
1 305 -217 0
1 305 -293 0
1 -306 -307 0
1 -308 -307 0
1 -309 310 0
1 -309 -122 0
1 309 -311 0
1 -229 -312 0
1 231 310 0
1 231 -122 0
1 313 218 0
1 314 -231 0
1 314 -215 0
1 304 315 0
1 -316 -317 0
1 -316 228 0
1 -316 -223 0
1 318 -310 0
1 -319 -320 0
1 -321 -316 0
1 -321 -231 0
1 322 323 0
1 -322 -324 0
1 317 -315 0
1 -317 -316 0
1 -317 228 0
1 325 326 0
1 -325 -128 0
1 325 -141 0
1 -324 327 0
1 324 -328 0
1 329 -226 0
1 330 329 0
1 -326 331 0
1 320 329 0
1 332 328 0
1 333 -233 0
1 333 -246 0
1 333 -238 0
1 -247 -233 0
1 -247 246 0
1 -334 -328 0
1 335 128 0
1 335 334 0
1 233 332 0
1 336 -329 0
1 242 -243 0
1 -337 -338 0
1 -339 -340 0
1 340 339 0
1 -340 341 0
1 -342 343 0
1 343 -340 0
1 343 -344 0
1 345 346 0
1 347 245 0
1 -348 -257 0
1 -272 -269 0
1 -349 -350 0
1 -351 -253 0
1 351 -352 0
1 -353 349 0
1 354 355 0
1 271 356 0
1 271 277 0
1 271 278 0
1 352 -357 0
1 358 -359 0
1 -357 360 0
1 359 260 0
1 -359 361 0
1 355 -362 0
1 -363 357 0
1 -363 -275 0
1 364 -360 0
1 -360 365 0
1 -360 366 0
1 -367 -360 0
1 368 369 0
1 -370 352 0
1 -370 -363 0
1 371 -372 0
1 372 283 0
1 372 -365 0
1 372 373 0
1 -288 374 0
1 -288 283 0
1 288 -375 0
1 288 -376 0
1 288 -377 0
1 377 -374 0
1 -377 288 0
1 377 -200 0
1 377 378 0
1 -375 -294 0
1 -375 -288 0
1 375 -379 0
1 373 380 0
1 -365 371 0
1 279 -381 0
1 -295 -296 0
1 -295 -168 0
1 -295 -286 0
1 299 -382 0
1 -299 376 0
1 -294 -383 0
1 -379 -384 0
1 -379 385 0
1 382 386 0
1 -374 -295 0
1 374 377 0
1 -374 -387 0
1 385 388 0
1 -388 295 0
1 -389 390 0
1 391 382 0
1 -391 297 0
1 -392 -215 0
1 -393 391 0
1 -393 -168 0
1 -393 -312 0
1 393 -394 0
1 390 -395 0
1 -390 -396 0
1 -397 -384 0
1 384 -392 0
1 -384 -398 0
1 395 306 0
1 -395 231 0
1 -399 303 0
1 399 400 0
1 -401 402 0
1 401 399 0
1 403 -286 0
1 -403 -303 0
1 -404 -311 0
1 307 314 0
1 307 405 0
1 307 305 0
1 307 406 0
1 407 408 0
1 -407 -405 0
1 -409 315 0
1 -409 -307 0
1 -410 -411 0
1 -410 -325 0
1 -410 313 0
1 410 -409 0
1 -315 314 0
1 327 412 0
1 411 -327 0
1 413 410 0
1 -413 412 0
1 414 -306 0
1 414 415 0
1 -331 416 0
1 -417 320 0
1 -418 -419 0
1 418 -320 0
1 420 421 0
1 420 422 0
1 -420 334 0
1 -423 424 0
1 416 424 0
1 -416 331 0
1 -425 -426 0
1 -427 327 0
1 427 -420 0
1 -427 -417 0
1 -428 326 0
1 -428 -328 0
1 429 -421 0
1 -429 337 0
1 424 423 0
1 430 -421 0
1 430 -431 0
1 432 424 0
1 421 -424 0
1 -419 -421 0
1 -433 -434 0
1 435 336 0
1 -435 -433 0
1 -435 434 0
1 431 -436 0
1 -436 -226 0
1 437 -434 0
1 -438 -439 0
1 438 355 0
1 440 -361 0
1 -440 -441 0
1 440 362 0
1 -442 443 0
1 -442 444 0
1 444 440 0
1 -445 -439 0
1 -445 438 0
1 -446 370 0
1 -383 447 0
1 -383 279 0
1 -443 -361 0
1 -447 -446 0
1 -447 -448 0
1 361 -441 0
1 -362 -443 0
1 362 -355 0
1 449 450 0
1 449 451 0
1 -448 449 0
1 448 -447 0
1 -448 451 0
1 -452 -381 0
1 -450 -453 0
1 -450 387 0
1 451 -443 0
1 387 374 0
1 -387 -454 0
1 387 -385 0
1 -454 -380 0
1 -398 -455 0
1 398 397 0
1 456 -457 0
1 -456 384 0
1 -456 -395 0
1 456 458 0
1 456 -459 0
1 -456 -460 0
1 456 397 0
1 456 380 0
1 460 375 0
1 460 -461 0
1 380 462 0
1 380 -454 0
1 -459 463 0
1 -459 -387 0
1 381 -456 0
1 381 -463 0
1 464 -462 0
1 -462 -457 0
1 461 -457 0
1 -461 -402 0
1 -465 -396 0
1 -465 466 0
1 386 -457 0
1 386 461 0
1 -457 467 0
1 -457 464 0
1 -468 465 0
1 455 -467 0
1 -400 469 0
1 400 -401 0
1 -469 -315 0
1 470 471 0
1 -470 -406 0
1 471 470 0
1 -471 -472 0
1 -396 415 0
1 -466 -469 0
1 473 384 0
1 -473 474 0
1 475 476 0
1 -477 408 0
1 -415 -478 0
1 -415 -476 0
1 -479 -480 0
1 -476 415 0
1 481 -482 0
1 481 483 0
1 481 484 0
1 -485 427 0
1 486 478 0
1 -486 429 0
1 -487 -488 0
1 487 -489 0
1 -480 -490 0
1 480 478 0
1 478 -491 0
1 478 -485 0
1 492 480 0
1 -426 -493 0
1 -426 -494 0
1 -495 419 0
1 -494 -495 0
1 -496 497 0
1 458 -497 0
1 458 498 0
1 -458 451 0
1 -499 -500 0
1 -499 -444 0
1 497 501 0
1 -502 381 0
1 -503 381 0
1 500 459 0
1 -504 447 0
1 -504 -505 0
1 -506 507 0
1 -506 -500 0
1 -507 -508 0
1 507 468 0
1 -509 -510 0
1 -509 -468 0
1 -510 -470 0
1 -510 504 0
1 510 508 0
1 -511 -512 0
1 -513 -514 0
1 -513 -512 0
1 -508 -509 0
1 -467 -475 0
1 467 -386 0
1 467 -466 0
1 515 516 0
1 -517 518 0
1 519 520 0
1 -519 489 0
1 -519 -467 0
1 -519 -517 0
1 -521 509 0
1 521 522 0
1 521 474 0
1 523 518 0
1 -523 -522 0
1 -472 -524 0
1 -524 -473 0
1 -524 516 0
1 -525 526 0
1 -516 527 0
1 -516 -525 0
1 526 -515 0
1 528 -520 0
1 -482 529 0
1 -482 492 0
1 -482 -530 0
1 484 -531 0
1 532 -529 0
1 -532 -533 0
1 -532 -534 0
1 529 -482 0
1 -529 -532 0
1 534 532 0
1 -534 -484 0
1 535 -527 0
1 -536 537 0
1 -536 -512 0
1 -538 -539 0
1 540 474 0
1 -541 536 0
1 -542 -543 0
1 -501 538 0
1 539 544 0
1 -514 -523 0
1 545 546 0
1 -543 547 0
1 -546 -538 0
1 -548 549 0
1 -548 506 0
1 550 -543 0
1 550 540 0
1 551 -550 0
1 551 -545 0
1 -520 -552 0
1 -520 -547 0
1 518 -546 0
1 518 553 0
1 549 -554 0
1 -552 -555 0
1 553 -545 0
1 556 508 0
